c description: Subset cardinality formula for Random regular bipartite with (5,5) vertices and left degree 4 + 1 random edges
c generator: CNFgen (0.9.0)
c copyright: (C) 2012-2020 Massimo Lauria <massimo.lauria@uniroma1.it>
c url: https://massimolauria.net/cnfgen
c command line: cnfgen subsetcard 5
c
p cnf 21 52
1 2 3 0
1 2 4 0
1 2 5 0
1 3 4 0
1 3 5 0
1 4 5 0
2 3 4 0
2 3 5 0
2 4 5 0
3 4 5 0
6 7 8 0
6 7 9 0
6 8 9 0
7 8 9 0
10 11 12 0
10 11 13 0
10 12 13 0
11 12 13 0
14 15 16 0
14 15 17 0
14 16 17 0
15 16 17 0
18 19 20 0
18 19 21 0
18 20 21 0
19 20 21 0
-1 -6 -10 0
-1 -6 -14 0
-1 -6 -18 0
-1 -10 -14 0
-1 -10 -18 0
-1 -14 -18 0
-6 -10 -14 0
-6 -10 -18 0
-6 -14 -18 0
-10 -14 -18 0
-2 -11 -15 0
-2 -11 -19 0
-2 -15 -19 0
-11 -15 -19 0
-3 -7 -12 0
-3 -7 -20 0
-3 -12 -20 0
-7 -12 -20 0
-4 -8 -16 0
-4 -8 -21 0
-4 -16 -21 0
-8 -16 -21 0
-5 -9 -13 0
-5 -9 -17 0
-5 -13 -17 0
-9 -13 -17 0
